set I :=
Adolfo
Alessandro
Andrea
Antonio
Arturo
Augusto
Bartolomeo
Benedetto
Bruno
Carlo
;

set K :=
A
B
;

set T :=
Lunedi
Martedi
Mercoledi
;

set J :=
Ortopedia
Dermatologia
;

param p :=
Adolfo 10
Alessandro 20
Andrea 15
Antonio 20
Arturo 40
Augusto 10
Bartolomeo 20
Benedetto 25
Bruno 30
Carlo 25
;

param s :=
(A, Lunedi) 120
(A, Martedi) 120
(A, Mercoledi) 120
(B, Lunedi) 120
(B, Martedi) 120
(B, Mercoledi) 120
;

param q :=
(Adolfo, Ortopedia) 1
(Alessandro, Ortopedia) 1
(Andrea, Ortopedia) 1
(Antonio, Ortopedia) 1
(Arturo, Ortopedia) 1
(Augusto, Ortopedia) 1
(Bartolomeo, Ortopedia) 1
(Benedetto, Ortopedia) 1
(Bruno, Ortopedia) 1
(Carlo, Ortopedia) 1
(Adolfo, Dermatologia) 0
(Alessandro, Dermatologia) 0
(Andrea, Dermatologia) 0
(Antonio, Dermatologia) 0
(Arturo, Dermatologia) 0
(Augusto, Dermatologia) 0
(Bartolomeo, Dermatologia) 0
(Benedetto, Dermatologia) 0
(Bruno, Dermatologia) 0
(Carlo, Dermatologia) 0
;

param tau :=
(A, Lunedi, Ortopedia) 1
(A, Lunedi, Dermatologia) 0
(A, Martedi, Ortopedia) 1
(A, Martedi, Dermatologia) 0
(A, Mercoledi, Ortopedia) 1
(A, Mercoledi, Dermatologia) 0
(B, Lunedi, Ortopedia) 0
(B, Lunedi, Dermatologia) 1
(B, Martedi, Ortopedia) 0
(B, Martedi, Dermatologia) 1
(B, Mercoledi, Ortopedia) 0
(B, Mercoledi, Dermatologia) 1
;